Maximize
  - 2.4310470035852 edge_0_1_0_0 - 0.44390179689903 edge_0_3_0_0
   - 2.644335767096 edge_0_6_0_0 - 3.1041618282962 edge_0_10_0_0
   - 1.6421833557258 edge_0_11_0_0 - 3.7433610907794 edge_0_14_0_0
   - 1.4304289477217 edge_0_16_0_0 - 5.6291876357402 edge_0_20_0_0
   + 0.523384093326034 edge_1_3_0_0 + 0.4319754834293855 edge_1_6_0_0
   + 0.1821685104154375 edge_1_10_0_0 + 0.6866960468506387 edge_1_11_0_0
   - 0.1604687024827141 edge_1_12_0_0 - 0.7380526520901174 edge_1_14_0_0
   + 0.1749438718790896 edge_1_16_0_0 - 0.8313042822425115 edge_1_23_0_0
   + 1.411071201636571 edge_1_24_0_0 + 2.621194299639559 edge_3_1_0_0
   + 0.5928531284324132 edge_3_5_0_0 + 3.205525798247967 edge_3_6_0_0
   + 0.2820893986288938 edge_3_10_0_0 + 2.106270838651791 edge_3_11_0_0
   + 0.0530115635546177 edge_3_12_0_0 + 0.243136123584592 edge_3_13_0_0
   + 0.1268861614876243 edge_3_14_0_0 + 0.4496258171374705 edge_3_15_0_0
   + 1.490439834571244 edge_3_16_0_0 - 0.0970057191887598 edge_3_20_0_0
   - 0.3878450008407425 edge_3_23_0_0 + 1.515696087372524 edge_3_24_0_0
   - 0.2606446130386702 edge_5_1_0_0 + 0.0755712857290641 edge_5_3_0_0
   + 0.717697860590688 edge_5_10_0_0 + 0.4554249089492726 edge_5_11_0_0
   - 0.0775169514554533 edge_5_16_0_0 + 1.477094711972692 edge_6_1_0_0
   + 1.660922219516411 edge_6_3_0_0 + 3.677480007378755 edge_6_5_0_0
   + 0.3901127731206637 edge_6_10_0_0 + 2.066291611954339 edge_6_11_0_0
   - 0.2652795478227671 edge_6_12_0_0 - 0.6001567768438669 edge_6_13_0_0
   - 0.3224988489927726 edge_6_14_0_0 - 0.5155850717701892 edge_6_15_0_0
   + 0.8411963570162895 edge_6_16_0_0 - 1.716543677182153 edge_6_20_0_0
   - 0.8922079223809712 edge_6_23_0_0 + 0.6896929775924983 edge_6_24_0_0
   - 0.4661644766349026 edge_10_1_0_0 - 0.3269240464752241 edge_10_3_0_0
   - 0.1675333486917235 edge_10_6_0_0 + 0.6607722045210851 edge_10_11_0_0
   + 0.0685670482700922 edge_10_12_0_0 - 0.336254125251351 edge_10_14_0_0
   - 0.3070618188956328 edge_10_16_0_0 - 0.4260888935379122 edge_11_1_0_0
   - 0.3840705181388496 edge_11_3_0_0 - 0.3714193955053695 edge_11_6_0_0
   + 3.200876299104592 edge_11_10_0_0 + 0.7222241590048575 edge_11_12_0_0
   - 0.4722456231484353 edge_11_13_0_0 + 1.312095638697748 edge_11_14_0_0
   - 0.1998418649422586 edge_11_15_0_0 + 1.853117294223487 edge_11_16_0_0
   - 0.8059641049408789 edge_11_17_0_0 - 1.543194978795437 edge_11_20_0_0
   + 0.8263105669378291 edge_11_23_0_0 + 1.943467171014487 edge_11_24_0_0
   - 0.5889921788216046 edge_12_1_0_0 - 0.4132766747948648 edge_12_3_0_0
   - 0.5554009896954609 edge_12_6_0_0 - 0.1033566102765706 edge_12_10_0_0
   - 0.3634141038646475 edge_12_11_0_0 - 0.042121668043749 edge_12_13_0_0
   + 0.3312321988548905 edge_12_14_0_0 + 0.1999152853471504 edge_12_16_0_0
   - 0.548806148419404 edge_12_23_0_0 - 0.0119667607309177 edge_12_24_0_0
   - 0.2438091858575 edge_13_12_0_0 - 0.210428043221336 edge_13_15_0_0
   - 0.2044724436128275 edge_13_16_0_0 - 0.8657233668216332 edge_14_1_0_0
   - 0.4204518407686073 edge_14_3_0_0 - 0.6080802231734446 edge_14_6_0_0
   - 0.2904187199261615 edge_14_10_0_0 - 0.0589014107506278 edge_14_11_0_0
   + 0.8548314234171002 edge_14_12_0_0 + 3.139787959725388 edge_14_13_0_0
   - 0.0650633319748925 edge_14_15_0_0 + 0.7823194579773287 edge_14_16_0_0
   - 0.3725845229991147 edge_14_20_0_0 + 0.5859491174992313 edge_14_23_0_0
   + 0.29945101417611 edge_14_24_0_0 + 0.6627631363493012 edge_15_12_0_0
   + 0.081236835040959 edge_15_13_0_0 - 0.0458654619136763 edge_15_14_0_0
   - 0.4189057569604016 edge_15_17_0_0 - 0.5310356522685022 edge_15_20_0_0
   - 1.216688276496378 edge_15_21_0_0 - 0.790767651262231 edge_15_23_0_0
   + 0.2732872614050514 edge_16_1_0_0 + 0.7170960295742281 edge_16_3_0_0
   + 0.4507826625723512 edge_16_6_0_0 + 1.208952027264971 edge_16_10_0_0
   + 1.216846086460676 edge_16_11_0_0 + 3.065608004418712 edge_16_12_0_0
   + 1.281378209172777 edge_16_13_0_0 + 2.312725736519162 edge_16_14_0_0
   + 3.811917397681023 edge_16_15_0_0 + 0.3458086932695079 edge_16_17_0_0
   + 0.7514266042924856 edge_16_19_0_0 + 3.206217896452318 edge_16_20_0_0
   + 0.348689237172216 edge_16_21_0_0 + 0.233981720866431 edge_16_22_0_0
   + 2.398769914085215 edge_16_23_0_0 + 1.733312997031641 edge_16_24_0_0
   - 0.5660319324107035 edge_17_12_0_0 - 0.2145364190792962 edge_17_21_0_0
   - 0.2696068224856469 edge_17_23_0_0 + 0.1435813218773805 edge_17_24_0_0
   - 0.2409883807803964 edge_19_17_0_0 - 0.8403513400908917 edge_19_23_0_0
   - 1.278196635081588 edge_20_1_0_0 - 0.836516479850181 edge_20_3_0_0
   - 0.9822492151753563 edge_20_6_0_0 + 0.3535329260761287 edge_20_10_0_0
   - 0.4446748228145659 edge_20_11_0_0 + 0.6595263342849332 edge_20_12_0_0
   - 0.0545950064036927 edge_20_13_0_0 + 0.242035048301457 edge_20_14_0_0
   + 1.247603849467063 edge_20_15_0_0 + 0.4627294767466382 edge_20_16_0_0
   + 2.393155023019669 edge_20_17_0_0 + 3.72262798419979 edge_20_19_0_0
   + 0.3346191989950174 edge_20_21_0_0 + 0.5293993987747991 edge_20_22_0_0
   + 2.522041491932529 edge_20_23_0_0 - 0.5151421071763677 edge_22_21_0_0
   - 0.8505124358128598 edge_23_1_0_0 - 0.4059288254594981 edge_23_3_0_0
   - 0.5445263580257541 edge_23_6_0_0 - 0.4926796705397493 edge_23_10_0_0
   - 0.1867602020315719 edge_23_11_0_0 + 0.547441919541236 edge_23_12_0_0
   + 0.0805826882286756 edge_23_14_0_0 - 0.0515634102305087 edge_23_15_0_0
   + 0.1139344903445146 edge_23_16_0_0 + 2.658890958612338 edge_23_17_0_0
   + 0.709637197413921 edge_23_19_0_0 + 0.3309640355619467 edge_23_20_0_0
   + 3.091926832235859 edge_23_21_0_0 + 3.634068433671203 edge_23_22_0_0
   + 0.391537380469073 edge_23_24_0_0 - 1.159177040947936 edge_24_23_0_0
Subject To
 one_parent_1: edge_0_1_0_0 + edge_3_1_0_0 + edge_5_1_0_0 + edge_6_1_0_0
   + edge_10_1_0_0 + edge_11_1_0_0 + edge_12_1_0_0 + edge_14_1_0_0
   + edge_16_1_0_0 + edge_20_1_0_0 + edge_23_1_0_0 = 1
 consume_one_flow_unit_1: flow_0_1_0_0 - flow_1_3_0_0 - flow_1_6_0_0
   - flow_1_10_0_0 - flow_1_11_0_0 - flow_1_12_0_0 - flow_1_14_0_0
   - flow_1_16_0_0 - flow_1_23_0_0 - flow_1_24_0_0 + flow_3_1_0_0
   + flow_5_1_0_0 + flow_6_1_0_0 + flow_10_1_0_0 + flow_11_1_0_0
   + flow_12_1_0_0 + flow_14_1_0_0 + flow_16_1_0_0 + flow_20_1_0_0
   + flow_23_1_0_0 = 1
 one_parent_2: = 1
 consume_one_flow_unit_2: = 1
 one_parent_3: edge_0_3_0_0 + edge_1_3_0_0 + edge_5_3_0_0 + edge_6_3_0_0
   + edge_10_3_0_0 + edge_11_3_0_0 + edge_12_3_0_0 + edge_14_3_0_0
   + edge_16_3_0_0 + edge_20_3_0_0 + edge_23_3_0_0 = 1
 consume_one_flow_unit_3: flow_0_3_0_0 + flow_1_3_0_0 - flow_3_1_0_0
   - flow_3_5_0_0 - flow_3_6_0_0 - flow_3_10_0_0 - flow_3_11_0_0
   - flow_3_12_0_0 - flow_3_13_0_0 - flow_3_14_0_0 - flow_3_15_0_0
   - flow_3_16_0_0 - flow_3_20_0_0 - flow_3_23_0_0 - flow_3_24_0_0
   + flow_5_3_0_0 + flow_6_3_0_0 + flow_10_3_0_0 + flow_11_3_0_0
   + flow_12_3_0_0 + flow_14_3_0_0 + flow_16_3_0_0 + flow_20_3_0_0
   + flow_23_3_0_0 = 1
 one_parent_4: = 1
 consume_one_flow_unit_4: = 1
 one_parent_5: edge_3_5_0_0 + edge_6_5_0_0 = 1
 consume_one_flow_unit_5: flow_3_5_0_0 - flow_5_1_0_0 - flow_5_3_0_0
   - flow_5_10_0_0 - flow_5_11_0_0 - flow_5_16_0_0 + flow_6_5_0_0 = 1
 one_parent_6: edge_0_6_0_0 + edge_1_6_0_0 + edge_3_6_0_0 + edge_10_6_0_0
   + edge_11_6_0_0 + edge_12_6_0_0 + edge_14_6_0_0 + edge_16_6_0_0
   + edge_20_6_0_0 + edge_23_6_0_0 = 1
 consume_one_flow_unit_6: flow_0_6_0_0 + flow_1_6_0_0 + flow_3_6_0_0
   - flow_6_1_0_0 - flow_6_3_0_0 - flow_6_5_0_0 - flow_6_10_0_0
   - flow_6_11_0_0 - flow_6_12_0_0 - flow_6_13_0_0 - flow_6_14_0_0
   - flow_6_15_0_0 - flow_6_16_0_0 - flow_6_20_0_0 - flow_6_23_0_0
   - flow_6_24_0_0 + flow_10_6_0_0 + flow_11_6_0_0 + flow_12_6_0_0
   + flow_14_6_0_0 + flow_16_6_0_0 + flow_20_6_0_0 + flow_23_6_0_0 = 1
 one_parent_7: = 1
 consume_one_flow_unit_7: = 1
 one_parent_8: = 1
 consume_one_flow_unit_8: = 1
 one_parent_9: = 1
 consume_one_flow_unit_9: = 1
 one_parent_10: edge_0_10_0_0 + edge_1_10_0_0 + edge_3_10_0_0
   + edge_5_10_0_0 + edge_6_10_0_0 + edge_11_10_0_0 + edge_12_10_0_0
   + edge_14_10_0_0 + edge_16_10_0_0 + edge_20_10_0_0 + edge_23_10_0_0 = 1
 consume_one_flow_unit_10: flow_0_10_0_0 + flow_1_10_0_0 + flow_3_10_0_0
   + flow_5_10_0_0 + flow_6_10_0_0 - flow_10_1_0_0 - flow_10_3_0_0
   - flow_10_6_0_0 - flow_10_11_0_0 - flow_10_12_0_0 - flow_10_14_0_0
   - flow_10_16_0_0 + flow_11_10_0_0 + flow_12_10_0_0 + flow_14_10_0_0
   + flow_16_10_0_0 + flow_20_10_0_0 + flow_23_10_0_0 = 1
 one_parent_11: edge_0_11_0_0 + edge_1_11_0_0 + edge_3_11_0_0
   + edge_5_11_0_0 + edge_6_11_0_0 + edge_10_11_0_0 + edge_12_11_0_0
   + edge_14_11_0_0 + edge_16_11_0_0 + edge_20_11_0_0 + edge_23_11_0_0 = 1
 consume_one_flow_unit_11: flow_0_11_0_0 + flow_1_11_0_0 + flow_3_11_0_0
   + flow_5_11_0_0 + flow_6_11_0_0 + flow_10_11_0_0 - flow_11_1_0_0
   - flow_11_3_0_0 - flow_11_6_0_0 - flow_11_10_0_0 - flow_11_12_0_0
   - flow_11_13_0_0 - flow_11_14_0_0 - flow_11_15_0_0 - flow_11_16_0_0
   - flow_11_17_0_0 - flow_11_20_0_0 - flow_11_23_0_0 - flow_11_24_0_0
   + flow_12_11_0_0 + flow_14_11_0_0 + flow_16_11_0_0 + flow_20_11_0_0
   + flow_23_11_0_0 = 1
 one_parent_12: edge_1_12_0_0 + edge_3_12_0_0 + edge_6_12_0_0
   + edge_10_12_0_0 + edge_11_12_0_0 + edge_13_12_0_0 + edge_14_12_0_0
   + edge_15_12_0_0 + edge_16_12_0_0 + edge_17_12_0_0 + edge_20_12_0_0
   + edge_23_12_0_0 = 1
 consume_one_flow_unit_12: flow_1_12_0_0 + flow_3_12_0_0 + flow_6_12_0_0
   + flow_10_12_0_0 + flow_11_12_0_0 - flow_12_1_0_0 - flow_12_3_0_0
   - flow_12_6_0_0 - flow_12_10_0_0 - flow_12_11_0_0 - flow_12_13_0_0
   - flow_12_14_0_0 - flow_12_16_0_0 - flow_12_23_0_0 - flow_12_24_0_0
   + flow_13_12_0_0 + flow_14_12_0_0 + flow_15_12_0_0 + flow_16_12_0_0
   + flow_17_12_0_0 + flow_20_12_0_0 + flow_23_12_0_0 = 1
 one_parent_13: edge_3_13_0_0 + edge_6_13_0_0 + edge_11_13_0_0
   + edge_12_13_0_0 + edge_14_13_0_0 + edge_15_13_0_0 + edge_16_13_0_0
   + edge_20_13_0_0 = 1
 consume_one_flow_unit_13: flow_3_13_0_0 + flow_6_13_0_0 + flow_11_13_0_0
   + flow_12_13_0_0 - flow_13_12_0_0 - flow_13_15_0_0 - flow_13_16_0_0
   + flow_14_13_0_0 + flow_15_13_0_0 + flow_16_13_0_0 + flow_20_13_0_0 = 1
 one_parent_14: edge_0_14_0_0 + edge_1_14_0_0 + edge_3_14_0_0
   + edge_6_14_0_0 + edge_10_14_0_0 + edge_11_14_0_0 + edge_12_14_0_0
   + edge_15_14_0_0 + edge_16_14_0_0 + edge_20_14_0_0 + edge_23_14_0_0 = 1
 consume_one_flow_unit_14: flow_0_14_0_0 + flow_1_14_0_0 + flow_3_14_0_0
   + flow_6_14_0_0 + flow_10_14_0_0 + flow_11_14_0_0 + flow_12_14_0_0
   - flow_14_1_0_0 - flow_14_3_0_0 - flow_14_6_0_0 - flow_14_10_0_0
   - flow_14_11_0_0 - flow_14_12_0_0 - flow_14_13_0_0 - flow_14_15_0_0
   - flow_14_16_0_0 - flow_14_20_0_0 - flow_14_23_0_0 - flow_14_24_0_0
   + flow_15_14_0_0 + flow_16_14_0_0 + flow_20_14_0_0 + flow_23_14_0_0 = 1
 one_parent_15: edge_3_15_0_0 + edge_6_15_0_0 + edge_11_15_0_0
   + edge_13_15_0_0 + edge_14_15_0_0 + edge_16_15_0_0 + edge_20_15_0_0
   + edge_23_15_0_0 = 1
 consume_one_flow_unit_15: flow_3_15_0_0 + flow_6_15_0_0 + flow_11_15_0_0
   + flow_13_15_0_0 + flow_14_15_0_0 - flow_15_12_0_0 - flow_15_13_0_0
   - flow_15_14_0_0 - flow_15_17_0_0 - flow_15_20_0_0 - flow_15_21_0_0
   - flow_15_23_0_0 + flow_16_15_0_0 + flow_20_15_0_0 + flow_23_15_0_0 = 1
 one_parent_16: edge_0_16_0_0 + edge_1_16_0_0 + edge_3_16_0_0
   + edge_5_16_0_0 + edge_6_16_0_0 + edge_10_16_0_0 + edge_11_16_0_0
   + edge_12_16_0_0 + edge_13_16_0_0 + edge_14_16_0_0 + edge_20_16_0_0
   + edge_23_16_0_0 = 1
 consume_one_flow_unit_16: flow_0_16_0_0 + flow_1_16_0_0 + flow_3_16_0_0
   + flow_5_16_0_0 + flow_6_16_0_0 + flow_10_16_0_0 + flow_11_16_0_0
   + flow_12_16_0_0 + flow_13_16_0_0 + flow_14_16_0_0 - flow_16_1_0_0
   - flow_16_3_0_0 - flow_16_6_0_0 - flow_16_10_0_0 - flow_16_11_0_0
   - flow_16_12_0_0 - flow_16_13_0_0 - flow_16_14_0_0 - flow_16_15_0_0
   - flow_16_17_0_0 - flow_16_19_0_0 - flow_16_20_0_0 - flow_16_21_0_0
   - flow_16_22_0_0 - flow_16_23_0_0 - flow_16_24_0_0 + flow_20_16_0_0
   + flow_23_16_0_0 = 1
 one_parent_17: edge_11_17_0_0 + edge_15_17_0_0 + edge_16_17_0_0
   + edge_19_17_0_0 + edge_20_17_0_0 + edge_23_17_0_0 = 1
 consume_one_flow_unit_17: flow_11_17_0_0 + flow_15_17_0_0 + flow_16_17_0_0
   - flow_17_12_0_0 - flow_17_21_0_0 - flow_17_23_0_0 - flow_17_24_0_0
   + flow_19_17_0_0 + flow_20_17_0_0 + flow_23_17_0_0 = 1
 one_parent_18: = 1
 consume_one_flow_unit_18: = 1
 one_parent_19: edge_16_19_0_0 + edge_20_19_0_0 + edge_23_19_0_0 = 1
 consume_one_flow_unit_19: flow_16_19_0_0 - flow_19_17_0_0 - flow_19_23_0_0
   + flow_20_19_0_0 + flow_23_19_0_0 = 1
 one_parent_20: edge_0_20_0_0 + edge_3_20_0_0 + edge_6_20_0_0
   + edge_11_20_0_0 + edge_14_20_0_0 + edge_15_20_0_0 + edge_16_20_0_0
   + edge_23_20_0_0 = 1
 consume_one_flow_unit_20: flow_0_20_0_0 + flow_3_20_0_0 + flow_6_20_0_0
   + flow_11_20_0_0 + flow_14_20_0_0 + flow_15_20_0_0 + flow_16_20_0_0
   - flow_20_1_0_0 - flow_20_3_0_0 - flow_20_6_0_0 - flow_20_10_0_0
   - flow_20_11_0_0 - flow_20_12_0_0 - flow_20_13_0_0 - flow_20_14_0_0
   - flow_20_15_0_0 - flow_20_16_0_0 - flow_20_17_0_0 - flow_20_19_0_0
   - flow_20_21_0_0 - flow_20_22_0_0 - flow_20_23_0_0 + flow_23_20_0_0 = 1
 one_parent_21: edge_15_21_0_0 + edge_16_21_0_0 + edge_17_21_0_0
   + edge_20_21_0_0 + edge_22_21_0_0 + edge_23_21_0_0 = 1
 consume_one_flow_unit_21: flow_15_21_0_0 + flow_16_21_0_0 + flow_17_21_0_0
   + flow_20_21_0_0 + flow_22_21_0_0 + flow_23_21_0_0 = 1
 one_parent_22: edge_16_22_0_0 + edge_20_22_0_0 + edge_23_22_0_0 = 1
 consume_one_flow_unit_22: flow_16_22_0_0 + flow_20_22_0_0 - flow_22_21_0_0
   + flow_23_22_0_0 = 1
 one_parent_23: edge_1_23_0_0 + edge_3_23_0_0 + edge_6_23_0_0
   + edge_11_23_0_0 + edge_12_23_0_0 + edge_14_23_0_0 + edge_15_23_0_0
   + edge_16_23_0_0 + edge_17_23_0_0 + edge_19_23_0_0 + edge_20_23_0_0
   + edge_24_23_0_0 = 1
 consume_one_flow_unit_23: flow_1_23_0_0 + flow_3_23_0_0 + flow_6_23_0_0
   + flow_11_23_0_0 + flow_12_23_0_0 + flow_14_23_0_0 + flow_15_23_0_0
   + flow_16_23_0_0 + flow_17_23_0_0 + flow_19_23_0_0 + flow_20_23_0_0
   - flow_23_1_0_0 - flow_23_3_0_0 - flow_23_6_0_0 - flow_23_10_0_0
   - flow_23_11_0_0 - flow_23_12_0_0 - flow_23_14_0_0 - flow_23_15_0_0
   - flow_23_16_0_0 - flow_23_17_0_0 - flow_23_19_0_0 - flow_23_20_0_0
   - flow_23_21_0_0 - flow_23_22_0_0 - flow_23_24_0_0 + flow_24_23_0_0 = 1
 one_parent_24: edge_1_24_0_0 + edge_3_24_0_0 + edge_6_24_0_0
   + edge_11_24_0_0 + edge_12_24_0_0 + edge_14_24_0_0 + edge_16_24_0_0
   + edge_17_24_0_0 + edge_23_24_0_0 = 1
 consume_one_flow_unit_24: flow_1_24_0_0 + flow_3_24_0_0 + flow_6_24_0_0
   + flow_11_24_0_0 + flow_12_24_0_0 + flow_14_24_0_0 + flow_16_24_0_0
   + flow_17_24_0_0 + flow_23_24_0_0 - flow_24_23_0_0 = 1
 root_flow: flow_0_1_0_0 + flow_0_3_0_0 + flow_0_6_0_0 + flow_0_10_0_0
   + flow_0_11_0_0 + flow_0_14_0_0 + flow_0_16_0_0 + flow_0_20_0_0 = 24
 inactive_no_flow_0_1_0_0: flow_0_1_0_0 - 1000 edge_0_1_0_0 <= 0
 inactive_no_flow_0_3_0_0: flow_0_3_0_0 - 1000 edge_0_3_0_0 <= 0
 inactive_no_flow_0_6_0_0: flow_0_6_0_0 - 1000 edge_0_6_0_0 <= 0
 inactive_no_flow_0_10_0_0: flow_0_10_0_0 - 1000 edge_0_10_0_0 <= 0
 inactive_no_flow_0_11_0_0: flow_0_11_0_0 - 1000 edge_0_11_0_0 <= 0
 inactive_no_flow_0_14_0_0: flow_0_14_0_0 - 1000 edge_0_14_0_0 <= 0
 inactive_no_flow_0_16_0_0: flow_0_16_0_0 - 1000 edge_0_16_0_0 <= 0
 inactive_no_flow_0_20_0_0: flow_0_20_0_0 - 1000 edge_0_20_0_0 <= 0
 inactive_no_flow_1_3_0_0: flow_1_3_0_0 - 1000 edge_1_3_0_0 <= 0
 inactive_no_flow_1_6_0_0: flow_1_6_0_0 - 1000 edge_1_6_0_0 <= 0
 inactive_no_flow_1_10_0_0: flow_1_10_0_0 - 1000 edge_1_10_0_0 <= 0
 inactive_no_flow_1_11_0_0: flow_1_11_0_0 - 1000 edge_1_11_0_0 <= 0
 inactive_no_flow_1_12_0_0: flow_1_12_0_0 - 1000 edge_1_12_0_0 <= 0
 inactive_no_flow_1_14_0_0: flow_1_14_0_0 - 1000 edge_1_14_0_0 <= 0
 inactive_no_flow_1_16_0_0: flow_1_16_0_0 - 1000 edge_1_16_0_0 <= 0
 inactive_no_flow_1_23_0_0: flow_1_23_0_0 - 1000 edge_1_23_0_0 <= 0
 inactive_no_flow_1_24_0_0: flow_1_24_0_0 - 1000 edge_1_24_0_0 <= 0
 inactive_no_flow_3_1_0_0: flow_3_1_0_0 - 1000 edge_3_1_0_0 <= 0
 inactive_no_flow_3_5_0_0: flow_3_5_0_0 - 1000 edge_3_5_0_0 <= 0
 inactive_no_flow_3_6_0_0: flow_3_6_0_0 - 1000 edge_3_6_0_0 <= 0
 inactive_no_flow_3_10_0_0: flow_3_10_0_0 - 1000 edge_3_10_0_0 <= 0
 inactive_no_flow_3_11_0_0: flow_3_11_0_0 - 1000 edge_3_11_0_0 <= 0
 inactive_no_flow_3_12_0_0: flow_3_12_0_0 - 1000 edge_3_12_0_0 <= 0
 inactive_no_flow_3_13_0_0: flow_3_13_0_0 - 1000 edge_3_13_0_0 <= 0
 inactive_no_flow_3_14_0_0: flow_3_14_0_0 - 1000 edge_3_14_0_0 <= 0
 inactive_no_flow_3_15_0_0: flow_3_15_0_0 - 1000 edge_3_15_0_0 <= 0
 inactive_no_flow_3_16_0_0: flow_3_16_0_0 - 1000 edge_3_16_0_0 <= 0
 inactive_no_flow_3_20_0_0: flow_3_20_0_0 - 1000 edge_3_20_0_0 <= 0
 inactive_no_flow_3_23_0_0: flow_3_23_0_0 - 1000 edge_3_23_0_0 <= 0
 inactive_no_flow_3_24_0_0: flow_3_24_0_0 - 1000 edge_3_24_0_0 <= 0
 inactive_no_flow_5_1_0_0: flow_5_1_0_0 - 1000 edge_5_1_0_0 <= 0
 inactive_no_flow_5_3_0_0: flow_5_3_0_0 - 1000 edge_5_3_0_0 <= 0
 inactive_no_flow_5_10_0_0: flow_5_10_0_0 - 1000 edge_5_10_0_0 <= 0
 inactive_no_flow_5_11_0_0: flow_5_11_0_0 - 1000 edge_5_11_0_0 <= 0
 inactive_no_flow_5_16_0_0: flow_5_16_0_0 - 1000 edge_5_16_0_0 <= 0
 inactive_no_flow_6_1_0_0: flow_6_1_0_0 - 1000 edge_6_1_0_0 <= 0
 inactive_no_flow_6_3_0_0: flow_6_3_0_0 - 1000 edge_6_3_0_0 <= 0
 inactive_no_flow_6_5_0_0: flow_6_5_0_0 - 1000 edge_6_5_0_0 <= 0
 inactive_no_flow_6_10_0_0: flow_6_10_0_0 - 1000 edge_6_10_0_0 <= 0
 inactive_no_flow_6_11_0_0: flow_6_11_0_0 - 1000 edge_6_11_0_0 <= 0
 inactive_no_flow_6_12_0_0: flow_6_12_0_0 - 1000 edge_6_12_0_0 <= 0
 inactive_no_flow_6_13_0_0: flow_6_13_0_0 - 1000 edge_6_13_0_0 <= 0
 inactive_no_flow_6_14_0_0: flow_6_14_0_0 - 1000 edge_6_14_0_0 <= 0
 inactive_no_flow_6_15_0_0: flow_6_15_0_0 - 1000 edge_6_15_0_0 <= 0
 inactive_no_flow_6_16_0_0: flow_6_16_0_0 - 1000 edge_6_16_0_0 <= 0
 inactive_no_flow_6_20_0_0: flow_6_20_0_0 - 1000 edge_6_20_0_0 <= 0
 inactive_no_flow_6_23_0_0: flow_6_23_0_0 - 1000 edge_6_23_0_0 <= 0
 inactive_no_flow_6_24_0_0: flow_6_24_0_0 - 1000 edge_6_24_0_0 <= 0
 inactive_no_flow_10_1_0_0: flow_10_1_0_0 - 1000 edge_10_1_0_0 <= 0
 inactive_no_flow_10_3_0_0: flow_10_3_0_0 - 1000 edge_10_3_0_0 <= 0
 inactive_no_flow_10_6_0_0: flow_10_6_0_0 - 1000 edge_10_6_0_0 <= 0
 inactive_no_flow_10_11_0_0: flow_10_11_0_0 - 1000 edge_10_11_0_0 <= 0
 inactive_no_flow_10_12_0_0: flow_10_12_0_0 - 1000 edge_10_12_0_0 <= 0
 inactive_no_flow_10_14_0_0: flow_10_14_0_0 - 1000 edge_10_14_0_0 <= 0
 inactive_no_flow_10_16_0_0: flow_10_16_0_0 - 1000 edge_10_16_0_0 <= 0
 inactive_no_flow_11_1_0_0: flow_11_1_0_0 - 1000 edge_11_1_0_0 <= 0
 inactive_no_flow_11_3_0_0: flow_11_3_0_0 - 1000 edge_11_3_0_0 <= 0
 inactive_no_flow_11_6_0_0: flow_11_6_0_0 - 1000 edge_11_6_0_0 <= 0
 inactive_no_flow_11_10_0_0: flow_11_10_0_0 - 1000 edge_11_10_0_0 <= 0
 inactive_no_flow_11_12_0_0: flow_11_12_0_0 - 1000 edge_11_12_0_0 <= 0
 inactive_no_flow_11_13_0_0: flow_11_13_0_0 - 1000 edge_11_13_0_0 <= 0
 inactive_no_flow_11_14_0_0: flow_11_14_0_0 - 1000 edge_11_14_0_0 <= 0
 inactive_no_flow_11_15_0_0: flow_11_15_0_0 - 1000 edge_11_15_0_0 <= 0
 inactive_no_flow_11_16_0_0: flow_11_16_0_0 - 1000 edge_11_16_0_0 <= 0
 inactive_no_flow_11_17_0_0: flow_11_17_0_0 - 1000 edge_11_17_0_0 <= 0
 inactive_no_flow_11_20_0_0: flow_11_20_0_0 - 1000 edge_11_20_0_0 <= 0
 inactive_no_flow_11_23_0_0: flow_11_23_0_0 - 1000 edge_11_23_0_0 <= 0
 inactive_no_flow_11_24_0_0: flow_11_24_0_0 - 1000 edge_11_24_0_0 <= 0
 inactive_no_flow_12_1_0_0: flow_12_1_0_0 - 1000 edge_12_1_0_0 <= 0
 inactive_no_flow_12_3_0_0: flow_12_3_0_0 - 1000 edge_12_3_0_0 <= 0
 inactive_no_flow_12_6_0_0: flow_12_6_0_0 - 1000 edge_12_6_0_0 <= 0
 inactive_no_flow_12_10_0_0: flow_12_10_0_0 - 1000 edge_12_10_0_0 <= 0
 inactive_no_flow_12_11_0_0: flow_12_11_0_0 - 1000 edge_12_11_0_0 <= 0
 inactive_no_flow_12_13_0_0: flow_12_13_0_0 - 1000 edge_12_13_0_0 <= 0
 inactive_no_flow_12_14_0_0: flow_12_14_0_0 - 1000 edge_12_14_0_0 <= 0
 inactive_no_flow_12_16_0_0: flow_12_16_0_0 - 1000 edge_12_16_0_0 <= 0
 inactive_no_flow_12_23_0_0: flow_12_23_0_0 - 1000 edge_12_23_0_0 <= 0
 inactive_no_flow_12_24_0_0: flow_12_24_0_0 - 1000 edge_12_24_0_0 <= 0
 inactive_no_flow_13_12_0_0: flow_13_12_0_0 - 1000 edge_13_12_0_0 <= 0
 inactive_no_flow_13_15_0_0: flow_13_15_0_0 - 1000 edge_13_15_0_0 <= 0
 inactive_no_flow_13_16_0_0: flow_13_16_0_0 - 1000 edge_13_16_0_0 <= 0
 inactive_no_flow_14_1_0_0: flow_14_1_0_0 - 1000 edge_14_1_0_0 <= 0
 inactive_no_flow_14_3_0_0: flow_14_3_0_0 - 1000 edge_14_3_0_0 <= 0
 inactive_no_flow_14_6_0_0: flow_14_6_0_0 - 1000 edge_14_6_0_0 <= 0
 inactive_no_flow_14_10_0_0: flow_14_10_0_0 - 1000 edge_14_10_0_0 <= 0
 inactive_no_flow_14_11_0_0: flow_14_11_0_0 - 1000 edge_14_11_0_0 <= 0
 inactive_no_flow_14_12_0_0: flow_14_12_0_0 - 1000 edge_14_12_0_0 <= 0
 inactive_no_flow_14_13_0_0: flow_14_13_0_0 - 1000 edge_14_13_0_0 <= 0
 inactive_no_flow_14_15_0_0: flow_14_15_0_0 - 1000 edge_14_15_0_0 <= 0
 inactive_no_flow_14_16_0_0: flow_14_16_0_0 - 1000 edge_14_16_0_0 <= 0
 inactive_no_flow_14_20_0_0: flow_14_20_0_0 - 1000 edge_14_20_0_0 <= 0
 inactive_no_flow_14_23_0_0: flow_14_23_0_0 - 1000 edge_14_23_0_0 <= 0
 inactive_no_flow_14_24_0_0: flow_14_24_0_0 - 1000 edge_14_24_0_0 <= 0
 inactive_no_flow_15_12_0_0: flow_15_12_0_0 - 1000 edge_15_12_0_0 <= 0
 inactive_no_flow_15_13_0_0: flow_15_13_0_0 - 1000 edge_15_13_0_0 <= 0
 inactive_no_flow_15_14_0_0: flow_15_14_0_0 - 1000 edge_15_14_0_0 <= 0
 inactive_no_flow_15_17_0_0: flow_15_17_0_0 - 1000 edge_15_17_0_0 <= 0
 inactive_no_flow_15_20_0_0: flow_15_20_0_0 - 1000 edge_15_20_0_0 <= 0
 inactive_no_flow_15_21_0_0: flow_15_21_0_0 - 1000 edge_15_21_0_0 <= 0
 inactive_no_flow_15_23_0_0: flow_15_23_0_0 - 1000 edge_15_23_0_0 <= 0
 inactive_no_flow_16_1_0_0: flow_16_1_0_0 - 1000 edge_16_1_0_0 <= 0
 inactive_no_flow_16_3_0_0: flow_16_3_0_0 - 1000 edge_16_3_0_0 <= 0
 inactive_no_flow_16_6_0_0: flow_16_6_0_0 - 1000 edge_16_6_0_0 <= 0
 inactive_no_flow_16_10_0_0: flow_16_10_0_0 - 1000 edge_16_10_0_0 <= 0
 inactive_no_flow_16_11_0_0: flow_16_11_0_0 - 1000 edge_16_11_0_0 <= 0
 inactive_no_flow_16_12_0_0: flow_16_12_0_0 - 1000 edge_16_12_0_0 <= 0
 inactive_no_flow_16_13_0_0: flow_16_13_0_0 - 1000 edge_16_13_0_0 <= 0
 inactive_no_flow_16_14_0_0: flow_16_14_0_0 - 1000 edge_16_14_0_0 <= 0
 inactive_no_flow_16_15_0_0: flow_16_15_0_0 - 1000 edge_16_15_0_0 <= 0
 inactive_no_flow_16_17_0_0: flow_16_17_0_0 - 1000 edge_16_17_0_0 <= 0
 inactive_no_flow_16_19_0_0: flow_16_19_0_0 - 1000 edge_16_19_0_0 <= 0
 inactive_no_flow_16_20_0_0: flow_16_20_0_0 - 1000 edge_16_20_0_0 <= 0
 inactive_no_flow_16_21_0_0: flow_16_21_0_0 - 1000 edge_16_21_0_0 <= 0
 inactive_no_flow_16_22_0_0: flow_16_22_0_0 - 1000 edge_16_22_0_0 <= 0
 inactive_no_flow_16_23_0_0: flow_16_23_0_0 - 1000 edge_16_23_0_0 <= 0
 inactive_no_flow_16_24_0_0: flow_16_24_0_0 - 1000 edge_16_24_0_0 <= 0
 inactive_no_flow_17_12_0_0: flow_17_12_0_0 - 1000 edge_17_12_0_0 <= 0
 inactive_no_flow_17_21_0_0: flow_17_21_0_0 - 1000 edge_17_21_0_0 <= 0
 inactive_no_flow_17_23_0_0: flow_17_23_0_0 - 1000 edge_17_23_0_0 <= 0
 inactive_no_flow_17_24_0_0: flow_17_24_0_0 - 1000 edge_17_24_0_0 <= 0
 inactive_no_flow_19_17_0_0: flow_19_17_0_0 - 1000 edge_19_17_0_0 <= 0
 inactive_no_flow_19_23_0_0: flow_19_23_0_0 - 1000 edge_19_23_0_0 <= 0
 inactive_no_flow_20_1_0_0: flow_20_1_0_0 - 1000 edge_20_1_0_0 <= 0
 inactive_no_flow_20_3_0_0: flow_20_3_0_0 - 1000 edge_20_3_0_0 <= 0
 inactive_no_flow_20_6_0_0: flow_20_6_0_0 - 1000 edge_20_6_0_0 <= 0
 inactive_no_flow_20_10_0_0: flow_20_10_0_0 - 1000 edge_20_10_0_0 <= 0
 inactive_no_flow_20_11_0_0: flow_20_11_0_0 - 1000 edge_20_11_0_0 <= 0
 inactive_no_flow_20_12_0_0: flow_20_12_0_0 - 1000 edge_20_12_0_0 <= 0
 inactive_no_flow_20_13_0_0: flow_20_13_0_0 - 1000 edge_20_13_0_0 <= 0
 inactive_no_flow_20_14_0_0: flow_20_14_0_0 - 1000 edge_20_14_0_0 <= 0
 inactive_no_flow_20_15_0_0: flow_20_15_0_0 - 1000 edge_20_15_0_0 <= 0
 inactive_no_flow_20_16_0_0: flow_20_16_0_0 - 1000 edge_20_16_0_0 <= 0
 inactive_no_flow_20_17_0_0: flow_20_17_0_0 - 1000 edge_20_17_0_0 <= 0
 inactive_no_flow_20_19_0_0: flow_20_19_0_0 - 1000 edge_20_19_0_0 <= 0
 inactive_no_flow_20_21_0_0: flow_20_21_0_0 - 1000 edge_20_21_0_0 <= 0
 inactive_no_flow_20_22_0_0: flow_20_22_0_0 - 1000 edge_20_22_0_0 <= 0
 inactive_no_flow_20_23_0_0: flow_20_23_0_0 - 1000 edge_20_23_0_0 <= 0
 inactive_no_flow_22_21_0_0: flow_22_21_0_0 - 1000 edge_22_21_0_0 <= 0
 inactive_no_flow_23_1_0_0: flow_23_1_0_0 - 1000 edge_23_1_0_0 <= 0
 inactive_no_flow_23_3_0_0: flow_23_3_0_0 - 1000 edge_23_3_0_0 <= 0
 inactive_no_flow_23_6_0_0: flow_23_6_0_0 - 1000 edge_23_6_0_0 <= 0
 inactive_no_flow_23_10_0_0: flow_23_10_0_0 - 1000 edge_23_10_0_0 <= 0
 inactive_no_flow_23_11_0_0: flow_23_11_0_0 - 1000 edge_23_11_0_0 <= 0
 inactive_no_flow_23_12_0_0: flow_23_12_0_0 - 1000 edge_23_12_0_0 <= 0
 inactive_no_flow_23_14_0_0: flow_23_14_0_0 - 1000 edge_23_14_0_0 <= 0
 inactive_no_flow_23_15_0_0: flow_23_15_0_0 - 1000 edge_23_15_0_0 <= 0
 inactive_no_flow_23_16_0_0: flow_23_16_0_0 - 1000 edge_23_16_0_0 <= 0
 inactive_no_flow_23_17_0_0: flow_23_17_0_0 - 1000 edge_23_17_0_0 <= 0
 inactive_no_flow_23_19_0_0: flow_23_19_0_0 - 1000 edge_23_19_0_0 <= 0
 inactive_no_flow_23_20_0_0: flow_23_20_0_0 - 1000 edge_23_20_0_0 <= 0
 inactive_no_flow_23_21_0_0: flow_23_21_0_0 - 1000 edge_23_21_0_0 <= 0
 inactive_no_flow_23_22_0_0: flow_23_22_0_0 - 1000 edge_23_22_0_0 <= 0
 inactive_no_flow_23_24_0_0: flow_23_24_0_0 - 1000 edge_23_24_0_0 <= 0
 inactive_no_flow_24_23_0_0: flow_24_23_0_0 - 1000 edge_24_23_0_0 <= 0
Bounds
Binaries
 edge_0_1_0_0 edge_0_3_0_0 edge_0_6_0_0 edge_0_10_0_0 edge_0_11_0_0
 edge_0_14_0_0 edge_0_16_0_0 edge_0_20_0_0 edge_1_3_0_0 edge_1_6_0_0
 edge_1_10_0_0 edge_1_11_0_0 edge_1_12_0_0 edge_1_14_0_0 edge_1_16_0_0
 edge_1_23_0_0 edge_1_24_0_0 edge_3_1_0_0 edge_3_5_0_0 edge_3_6_0_0
 edge_3_10_0_0 edge_3_11_0_0 edge_3_12_0_0 edge_3_13_0_0 edge_3_14_0_0
 edge_3_15_0_0 edge_3_16_0_0 edge_3_20_0_0 edge_3_23_0_0 edge_3_24_0_0
 edge_5_1_0_0 edge_5_3_0_0 edge_5_10_0_0 edge_5_11_0_0 edge_5_16_0_0
 edge_6_1_0_0 edge_6_3_0_0 edge_6_5_0_0 edge_6_10_0_0 edge_6_11_0_0
 edge_6_12_0_0 edge_6_13_0_0 edge_6_14_0_0 edge_6_15_0_0 edge_6_16_0_0
 edge_6_20_0_0 edge_6_23_0_0 edge_6_24_0_0 edge_10_1_0_0 edge_10_3_0_0
 edge_10_6_0_0 edge_10_11_0_0 edge_10_12_0_0 edge_10_14_0_0 edge_10_16_0_0
 edge_11_1_0_0 edge_11_3_0_0 edge_11_6_0_0 edge_11_10_0_0 edge_11_12_0_0
 edge_11_13_0_0 edge_11_14_0_0 edge_11_15_0_0 edge_11_16_0_0 edge_11_17_0_0
 edge_11_20_0_0 edge_11_23_0_0 edge_11_24_0_0 edge_12_1_0_0 edge_12_3_0_0
 edge_12_6_0_0 edge_12_10_0_0 edge_12_11_0_0 edge_12_13_0_0 edge_12_14_0_0
 edge_12_16_0_0 edge_12_23_0_0 edge_12_24_0_0 edge_13_12_0_0 edge_13_15_0_0
 edge_13_16_0_0 edge_14_1_0_0 edge_14_3_0_0 edge_14_6_0_0 edge_14_10_0_0
 edge_14_11_0_0 edge_14_12_0_0 edge_14_13_0_0 edge_14_15_0_0 edge_14_16_0_0
 edge_14_20_0_0 edge_14_23_0_0 edge_14_24_0_0 edge_15_12_0_0 edge_15_13_0_0
 edge_15_14_0_0 edge_15_17_0_0 edge_15_20_0_0 edge_15_21_0_0 edge_15_23_0_0
 edge_16_1_0_0 edge_16_3_0_0 edge_16_6_0_0 edge_16_10_0_0 edge_16_11_0_0
 edge_16_12_0_0 edge_16_13_0_0 edge_16_14_0_0 edge_16_15_0_0 edge_16_17_0_0
 edge_16_19_0_0 edge_16_20_0_0 edge_16_21_0_0 edge_16_22_0_0 edge_16_23_0_0
 edge_16_24_0_0 edge_17_12_0_0 edge_17_21_0_0 edge_17_23_0_0 edge_17_24_0_0
 edge_19_17_0_0 edge_19_23_0_0 edge_20_1_0_0 edge_20_3_0_0 edge_20_6_0_0
 edge_20_10_0_0 edge_20_11_0_0 edge_20_12_0_0 edge_20_13_0_0 edge_20_14_0_0
 edge_20_15_0_0 edge_20_16_0_0 edge_20_17_0_0 edge_20_19_0_0 edge_20_21_0_0
 edge_20_22_0_0 edge_20_23_0_0 edge_22_21_0_0 edge_23_1_0_0 edge_23_3_0_0
 edge_23_6_0_0 edge_23_10_0_0 edge_23_11_0_0 edge_23_12_0_0 edge_23_14_0_0
 edge_23_15_0_0 edge_23_16_0_0 edge_23_17_0_0 edge_23_19_0_0 edge_23_20_0_0
 edge_23_21_0_0 edge_23_22_0_0 edge_23_24_0_0 edge_24_23_0_0
End
